\ENCODING=ISO-8859-1
\Problem name: IloCplex

Minimize
 obj: 149 y(0) + 145 y(1) + 88 y(2) + 139 y(3) + 145 y(4) + 119 y(5) + 134 y(6)
      + 163 y(7) + 123 y(8) + 147 y(9) + 226 y(10) + 99 y(11) + 170 y(12)
      + 204 y(13) + 73 y(14) + 154 y(15) + 204 y(16) + 76 y(17) + 148 y(18)
      + 180 y(19) + 88 y(20) + 142 y(21) + 150 y(22) + 89 y(23) + 119 y(24)
      + 150 y(25) + 65 y(26) + 145 y(27) + 155 y(28) + 61 y(29) + 163 y(30)
      + 155 y(31) + 43 y(32) + 226 y(33) + 139 y(34) + 64 y(35) + 212 y(36)
      + 139 y(37) + 78 y(38) + 204 y(39) + 134 y(40) + 90 y(41) + 180 y(42)
      + 147 y(43) + 90 y(44) + 150 y(45) + 147 y(46) + 100 y(47) + 150 y(48)
      + 154 y(49) + 71 y(50) + 142 y(51) + 154 y(52) + 79 y(53) + 155 y(54)
      + 148 y(55) + 72 y(56) + 155 y(57) + 119 y(58) + 64 y(59) + 154 y(60)
      + 119 y(61) + 103 y(62)
Subject To
 c1:  y(0) + y(5) + y(8) + y(10) + y(13) + y(16) + y(19) + y(22) + y(25)
      + y(28) + y(31) + y(33) + y(36) + y(39) + y(42) + y(45) + y(48) + y(51)
      + y(54) + y(57) + y(60)  = 1
 c2:  y(0) + y(5) + y(8) + y(10) + y(13) + y(16) + y(19) + y(22) + y(25)
      + y(28) + y(31) + y(33) + y(36) + y(39) + y(42) + y(45) + y(48) + y(51)
      + y(54) + y(57) + y(60)  = 1
 c3:  y(0) + y(5) + y(8) + y(10) + y(13) + y(16) + y(19) + y(22) + y(25)
      + y(28) + y(31) + y(33) + y(36) + y(39) + y(42) + y(45) + y(48) + y(51)
      + y(54) + y(57) + y(60)  = 1
 c4:  y(0) + y(3) + y(8) + y(11) + y(13) + y(16) + y(19) + y(22) + y(25)
      + y(28) + y(31) + y(34) + y(37) + y(39) + y(42) + y(45) + y(48) + y(51)
      + y(54) + y(57) + y(60)  = 1
 c5:  y(0) + y(3) + y(8) + y(11) + y(13) + y(16) + y(19) + y(22) + y(25)
      + y(28) + y(31) + y(34) + y(37) + y(39) + y(42) + y(45) + y(48) + y(51)
      + y(54) + y(57) + y(60)  = 1
 c6:  y(0) + y(3) + y(8) + y(11) + y(13) + y(16) + y(19) + y(22) + y(25)
      + y(28) + y(31) + y(34) + y(37) + y(39) + y(42) + y(45) + y(48) + y(51)
      + y(54) + y(57) + y(60)  = 1
 c7:  y(2) + y(5) + y(8) + y(10) + y(13) + y(16) + y(19) + y(22) + y(25)
      + y(28) + y(31) + y(33) + y(36) + y(39) + y(42) + y(45) + y(48) + y(51)
      + y(54) + y(57) + y(60)  = 1
 c8:  y(2) + y(5) + y(8) + y(10) + y(13) + y(16) + y(19) + y(22) + y(25)
      + y(28) + y(31) + y(33) + y(36) + y(39) + y(42) + y(45) + y(48) + y(51)
      + y(54) + y(57) + y(60)  = 1
 c9:  y(2) + y(5) + y(8) + y(10) + y(13) + y(16) + y(19) + y(22) + y(25)
      + y(28) + y(31) + y(33) + y(36) + y(39) + y(42) + y(45) + y(48) + y(51)
      + y(54) + y(57) + y(60)  = 1
 c10: y(2) + y(5) + y(8) + y(10) + y(13) + y(16) + y(19) + y(22) + y(25)
      + y(28) + y(31) + y(33) + y(36) + y(39) + y(42) + y(45) + y(48) + y(51)
      + y(54) + y(57) + y(62)  = 1
 c11: y(2) + y(5) + y(8) + y(10) + y(13) + y(16) + y(19) + y(22) + y(25)
      + y(28) + y(31) + y(33) + y(36) + y(39) + y(42) + y(45) + y(48) + y(51)
      + y(54) + y(57) + y(62)  = 1
 c12: y(2) + y(5) + y(8) + y(10) + y(13) + y(16) + y(19) + y(22) + y(25)
      + y(28) + y(31) + y(33) + y(36) + y(39) + y(42) + y(45) + y(48) + y(51)
      + y(54) + y(57) + y(62)  = 1
 c13: y(0) + y(3) + y(6) + y(11) + y(14) + y(17) + y(19) + y(22) + y(25)
      + y(28) + y(31) + y(34) + y(37) + y(40) + y(42) + y(45) + y(48) + y(51)
      + y(54) + y(57) + y(60)  = 1
 c14: y(0) + y(3) + y(6) + y(11) + y(14) + y(17) + y(19) + y(22) + y(25)
      + y(28) + y(31) + y(34) + y(37) + y(40) + y(42) + y(45) + y(48) + y(51)
      + y(54) + y(57) + y(60)  = 1
 c15: y(0) + y(3) + y(6) + y(11) + y(14) + y(17) + y(19) + y(22) + y(25)
      + y(28) + y(31) + y(34) + y(37) + y(40) + y(42) + y(45) + y(48) + y(51)
      + y(54) + y(57) + y(60)  = 1
 c16: y(0) + y(3) + y(6) + y(9) + y(12) + y(15) + y(20) + y(23) + y(26) + y(28)
      + y(31) + y(34) + y(37) + y(40) + y(43) + y(46) + y(49) + y(52) + y(54)
      + y(57) + y(60)  = 1
 c17: y(0) + y(3) + y(6) + y(9) + y(12) + y(15) + y(20) + y(23) + y(26) + y(28)
      + y(31) + y(34) + y(37) + y(40) + y(43) + y(46) + y(49) + y(52) + y(54)
      + y(57) + y(60)  = 1
 c18: y(0) + y(3) + y(6) + y(9) + y(12) + y(15) + y(20) + y(23) + y(26) + y(28)
      + y(31) + y(34) + y(37) + y(40) + y(43) + y(46) + y(49) + y(52) + y(54)
      + y(57) + y(60)  = 1
 c19: y(0) + y(3) + y(6) + y(9) + y(14) + y(17) + y(20) + y(23) + y(25) + y(28)
      + y(31) + y(34) + y(37) + y(40) + y(43) + y(46) + y(48) + y(51) + y(54)
      + y(57) + y(60)  = 1
 c20: y(0) + y(3) + y(6) + y(9) + y(14) + y(17) + y(20) + y(23) + y(25) + y(28)
      + y(31) + y(34) + y(37) + y(40) + y(43) + y(46) + y(48) + y(51) + y(54)
      + y(57) + y(60)  = 1
 c21: y(0) + y(3) + y(6) + y(9) + y(14) + y(17) + y(20) + y(23) + y(25) + y(28)
      + y(31) + y(34) + y(37) + y(40) + y(43) + y(46) + y(48) + y(51) + y(54)
      + y(57) + y(60)  = 1
 c22: y(0) + y(3) + y(6) + y(9) + y(12) + y(15) + y(18) + y(23) + y(26) + y(29)
      + y(31) + y(34) + y(37) + y(40) + y(43) + y(46) + y(49) + y(52) + y(55)
      + y(57) + y(60)  = 1
 c23: y(0) + y(3) + y(6) + y(9) + y(12) + y(15) + y(18) + y(23) + y(26) + y(29)
      + y(31) + y(34) + y(37) + y(40) + y(43) + y(46) + y(49) + y(52) + y(55)
      + y(57) + y(60)  = 1
 c24: y(0) + y(3) + y(6) + y(9) + y(12) + y(15) + y(18) + y(23) + y(26) + y(29)
      + y(31) + y(34) + y(37) + y(40) + y(43) + y(46) + y(49) + y(52) + y(55)
      + y(57) + y(60)  = 1
 c25: y(0) + y(3) + y(6) + y(9) + y(12) + y(17) + y(20) + y(23) + y(25) + y(28)
      + y(31) + y(34) + y(37) + y(40) + y(43) + y(46) + y(48) + y(51) + y(54)
      + y(57) + y(60)  = 1
 c26: y(0) + y(3) + y(6) + y(9) + y(12) + y(17) + y(20) + y(23) + y(25) + y(28)
      + y(31) + y(34) + y(37) + y(40) + y(43) + y(46) + y(48) + y(51) + y(54)
      + y(57) + y(60)  = 1
 c27: y(0) + y(3) + y(6) + y(9) + y(12) + y(17) + y(20) + y(23) + y(25) + y(28)
      + y(31) + y(34) + y(37) + y(40) + y(43) + y(46) + y(48) + y(51) + y(54)
      + y(57) + y(60)  = 1
 c28: y(0) + y(3) + y(6) + y(9) + y(12) + y(15) + y(18) + y(21) + y(26) + y(29)
      + y(31) + y(34) + y(37) + y(40) + y(43) + y(46) + y(49) + y(52) + y(55)
      + y(57) + y(60)  = 1
 c29: y(0) + y(3) + y(6) + y(9) + y(12) + y(15) + y(18) + y(21) + y(26) + y(29)
      + y(31) + y(34) + y(37) + y(40) + y(43) + y(46) + y(49) + y(52) + y(55)
      + y(57) + y(60)  = 1
 c30: y(0) + y(3) + y(6) + y(9) + y(12) + y(15) + y(18) + y(21) + y(26) + y(29)
      + y(31) + y(34) + y(37) + y(40) + y(43) + y(46) + y(49) + y(52) + y(55)
      + y(57) + y(60)  = 1
 c31: y(2) + y(5) + y(7) + y(10) + y(13) + y(16) + y(19) + y(22) + y(25)
      + y(28) + y(30) + y(33) + y(36) + y(39) + y(42) + y(45) + y(48) + y(51)
      + y(54) + y(59) + y(62)  = 1
 c32: y(2) + y(5) + y(7) + y(10) + y(13) + y(16) + y(19) + y(22) + y(25)
      + y(28) + y(30) + y(33) + y(36) + y(39) + y(42) + y(45) + y(48) + y(51)
      + y(54) + y(59) + y(62)  = 1
 c33: y(2) + y(5) + y(7) + y(10) + y(13) + y(16) + y(19) + y(22) + y(25)
      + y(28) + y(30) + y(33) + y(36) + y(39) + y(42) + y(45) + y(48) + y(51)
      + y(54) + y(59) + y(62)  = 1
 c34: y(0) + y(3) + y(6) + y(9) + y(12) + y(15) + y(18) + y(21) + y(24) + y(29)
      + y(32) + y(34) + y(37) + y(40) + y(43) + y(46) + y(49) + y(52) + y(55)
      + y(58) + y(61)  = 1
 c35: y(0) + y(3) + y(6) + y(9) + y(12) + y(15) + y(18) + y(21) + y(24) + y(29)
      + y(32) + y(34) + y(37) + y(40) + y(43) + y(46) + y(49) + y(52) + y(55)
      + y(58) + y(61)  = 1
 c36: y(0) + y(3) + y(6) + y(9) + y(12) + y(15) + y(18) + y(21) + y(24) + y(29)
      + y(32) + y(34) + y(37) + y(40) + y(43) + y(46) + y(49) + y(52) + y(55)
      + y(58) + y(61)  = 1
 c37: y(1) + y(4) + y(7) + y(10) + y(13) + y(16) + y(19) + y(22) + y(25)
      + y(27) + y(30) + y(33) + y(36) + y(39) + y(42) + y(45) + y(48) + y(51)
      + y(56) + y(59) + y(62)  = 1
 c38: y(1) + y(4) + y(7) + y(10) + y(13) + y(16) + y(19) + y(22) + y(25)
      + y(27) + y(30) + y(33) + y(36) + y(39) + y(42) + y(45) + y(48) + y(51)
      + y(56) + y(59) + y(62)  = 1
 c39: y(1) + y(4) + y(7) + y(10) + y(13) + y(16) + y(19) + y(22) + y(25)
      + y(27) + y(30) + y(33) + y(36) + y(39) + y(42) + y(45) + y(48) + y(51)
      + y(56) + y(59) + y(62)  = 1
 c40: y(1) + y(4) + y(7) + y(10) + y(13) + y(16) + y(19) + y(22) + y(24)
      + y(27) + y(30) + y(33) + y(36) + y(39) + y(42) + y(45) + y(50) + y(53)
      + y(56) + y(58) + y(61)  = 1
 c41: y(1) + y(4) + y(7) + y(10) + y(13) + y(16) + y(19) + y(22) + y(24)
      + y(27) + y(30) + y(33) + y(36) + y(39) + y(42) + y(45) + y(50) + y(53)
      + y(56) + y(58) + y(61)  = 1
 c42: y(1) + y(4) + y(7) + y(10) + y(13) + y(16) + y(19) + y(22) + y(24)
      + y(27) + y(30) + y(33) + y(36) + y(39) + y(42) + y(45) + y(50) + y(53)
      + y(56) + y(58) + y(61)  = 1
 c43: y(1) + y(4) + y(6) + y(9) + y(12) + y(15) + y(18) + y(21) + y(24) + y(27)
      + y(32) + y(35) + y(38) + y(40) + y(43) + y(46) + y(49) + y(52) + y(55)
      + y(58) + y(61)  = 1
 c44: y(1) + y(4) + y(6) + y(9) + y(12) + y(15) + y(18) + y(21) + y(24) + y(27)
      + y(32) + y(35) + y(38) + y(40) + y(43) + y(46) + y(49) + y(52) + y(55)
      + y(58) + y(61)  = 1
 c45: y(1) + y(4) + y(6) + y(9) + y(12) + y(15) + y(18) + y(21) + y(24) + y(27)
      + y(32) + y(35) + y(38) + y(40) + y(43) + y(46) + y(49) + y(52) + y(55)
      + y(58) + y(61)  = 1
 c46: y(1) + y(4) + y(7) + y(10) + y(13) + y(16) + y(19) + y(22) + y(25)
      + y(27) + y(30) + y(33) + y(36) + y(39) + y(42) + y(45) + y(48) + y(53)
      + y(56) + y(59) + y(62)  = 1
 c47: y(1) + y(4) + y(7) + y(10) + y(13) + y(16) + y(19) + y(22) + y(25)
      + y(27) + y(30) + y(33) + y(36) + y(39) + y(42) + y(45) + y(48) + y(53)
      + y(56) + y(59) + y(62)  = 1
 c48: y(1) + y(4) + y(7) + y(10) + y(13) + y(16) + y(19) + y(22) + y(25)
      + y(27) + y(30) + y(33) + y(36) + y(39) + y(42) + y(45) + y(48) + y(53)
      + y(56) + y(59) + y(62)  = 1
 c49: y(1) + y(4) + y(7) + y(10) + y(13) + y(16) + y(19) + y(21) + y(24)
      + y(27) + y(30) + y(33) + y(36) + y(39) + y(42) + y(47) + y(50) + y(53)
      + y(56) + y(58) + y(61)  = 1
 c50: y(1) + y(4) + y(7) + y(10) + y(13) + y(16) + y(19) + y(21) + y(24)
      + y(27) + y(30) + y(33) + y(36) + y(39) + y(42) + y(47) + y(50) + y(53)
      + y(56) + y(58) + y(61)  = 1
 c51: y(1) + y(4) + y(7) + y(10) + y(13) + y(16) + y(19) + y(21) + y(24)
      + y(27) + y(30) + y(33) + y(36) + y(39) + y(42) + y(47) + y(50) + y(53)
      + y(56) + y(58) + y(61)  = 1
 c52: y(1) + y(4) + y(7) + y(9) + y(12) + y(15) + y(18) + y(21) + y(24) + y(27)
      + y(30) + y(35) + y(38) + y(41) + y(43) + y(46) + y(49) + y(52) + y(55)
      + y(58) + y(61)  = 1
 c53: y(1) + y(4) + y(7) + y(9) + y(12) + y(15) + y(18) + y(21) + y(24) + y(27)
      + y(30) + y(35) + y(38) + y(41) + y(43) + y(46) + y(49) + y(52) + y(55)
      + y(58) + y(61)  = 1
 c54: y(1) + y(4) + y(7) + y(9) + y(12) + y(15) + y(18) + y(21) + y(24) + y(27)
      + y(30) + y(35) + y(38) + y(41) + y(43) + y(46) + y(49) + y(52) + y(55)
      + y(58) + y(61)  = 1
 c55: y(1) + y(4) + y(7) + y(10) + y(13) + y(16) + y(18) + y(21) + y(24)
      + y(27) + y(30) + y(33) + y(36) + y(39) + y(44) + y(47) + y(50) + y(53)
      + y(55) + y(58) + y(61)  = 1
 c56: y(1) + y(4) + y(7) + y(10) + y(13) + y(16) + y(18) + y(21) + y(24)
      + y(27) + y(30) + y(33) + y(36) + y(39) + y(44) + y(47) + y(50) + y(53)
      + y(55) + y(58) + y(61)  = 1
 c57: y(1) + y(4) + y(7) + y(10) + y(13) + y(16) + y(18) + y(21) + y(24)
      + y(27) + y(30) + y(33) + y(36) + y(39) + y(44) + y(47) + y(50) + y(53)
      + y(55) + y(58) + y(61)  = 1
 c58: y(1) + y(4) + y(7) + y(10) + y(12) + y(15) + y(18) + y(21) + y(24)
      + y(27) + y(30) + y(33) + y(38) + y(41) + y(44) + y(47) + y(49) + y(52)
      + y(55) + y(58) + y(61)  = 1
 c59: y(1) + y(4) + y(7) + y(10) + y(12) + y(15) + y(18) + y(21) + y(24)
      + y(27) + y(30) + y(33) + y(38) + y(41) + y(44) + y(47) + y(49) + y(52)
      + y(55) + y(58) + y(61)  = 1
 c60: y(1) + y(4) + y(7) + y(10) + y(12) + y(15) + y(18) + y(21) + y(24)
      + y(27) + y(30) + y(33) + y(38) + y(41) + y(44) + y(47) + y(49) + y(52)
      + y(55) + y(58) + y(61)  = 1
 c61: y(1) + y(4) + y(7) + y(10) + y(12) + y(15) + y(18) + y(21) + y(24)
      + y(27) + y(30) + y(33) + y(36) + y(41) + y(44) + y(47) + y(49) + y(52)
      + y(55) + y(58) + y(61)  = 1
 c62: y(1) + y(4) + y(7) + y(10) + y(12) + y(15) + y(18) + y(21) + y(24)
      + y(27) + y(30) + y(33) + y(36) + y(41) + y(44) + y(47) + y(49) + y(52)
      + y(55) + y(58) + y(61)  = 1
 c63: y(1) + y(4) + y(7) + y(10) + y(12) + y(15) + y(18) + y(21) + y(24)
      + y(27) + y(30) + y(33) + y(36) + y(41) + y(44) + y(47) + y(49) + y(52)
      + y(55) + y(58) + y(61)  = 1
 c64: y(0) + y(1) + y(2) + y(3) + y(4) + y(5) + y(6) + y(7) + y(8) + y(9)
      + y(10) + y(11) + y(12) + y(13) + y(14) + y(15) + y(16) + y(17) + y(18)
      + y(19) + y(20) + y(21) + y(22) + y(23) + y(24) + y(25) + y(26) + y(27)
      + y(28) + y(29) + y(30) + y(31) + y(32) + y(33) + y(34) + y(35) + y(36)
      + y(37) + y(38) + y(39) + y(40) + y(41) + y(42) + y(43) + y(44) + y(45)
      + y(46) + y(47) + y(48) + y(49) + y(50) + y(51) + y(52) + y(53) + y(54)
      + y(55) + y(56) + y(57) + y(58) + y(59) + y(60) + y(61) + y(62) >= 2
 c65: y(0) + y(1) + y(2) + y(3) + y(4) + y(5) + y(6) + y(7) + y(8) + y(9)
      + y(10) + y(11) + y(12) + y(13) + y(14) + y(15) + y(16) + y(17) + y(18)
      + y(19) + y(20) + y(21) + y(22) + y(23) + y(24) + y(25) + y(26) + y(27)
      + y(28) + y(29) + y(30) + y(31) + y(32) + y(33) + y(34) + y(35) + y(36)
      + y(37) + y(38) + y(39) + y(40) + y(41) + y(42) + y(43) + y(44) + y(45)
      + y(46) + y(47) + y(48) + y(49) + y(50) + y(51) + y(52) + y(53) + y(54)
      + y(55) + y(56) + y(57) + y(58) + y(59) + y(60) + y(61) + y(62) <= 6
Bounds
 0 <= y(0) <= 1
 0 <= y(1) <= 1
 0 <= y(2) <= 1
 0 <= y(3) <= 1
 0 <= y(4) <= 1
 0 <= y(5) <= 1
 0 <= y(6) <= 1
 0 <= y(7) <= 1
 0 <= y(8) <= 1
 0 <= y(9) <= 1
 0 <= y(10) <= 1
 0 <= y(11) <= 1
 0 <= y(12) <= 1
 0 <= y(13) <= 1
 0 <= y(14) <= 1
 0 <= y(15) <= 1
 0 <= y(16) <= 1
 0 <= y(17) <= 1
 0 <= y(18) <= 1
 0 <= y(19) <= 1
 0 <= y(20) <= 1
 0 <= y(21) <= 1
 0 <= y(22) <= 1
 0 <= y(23) <= 1
 0 <= y(24) <= 1
 0 <= y(25) <= 1
 0 <= y(26) <= 1
 0 <= y(27) <= 1
 0 <= y(28) <= 1
 0 <= y(29) <= 1
 0 <= y(30) <= 1
 0 <= y(31) <= 1
 0 <= y(32) <= 1
 0 <= y(33) <= 1
 0 <= y(34) <= 1
 0 <= y(35) <= 1
 0 <= y(36) <= 1
 0 <= y(37) <= 1
 0 <= y(38) <= 1
 0 <= y(39) <= 1
 0 <= y(40) <= 1
 0 <= y(41) <= 1
 0 <= y(42) <= 1
 0 <= y(43) <= 1
 0 <= y(44) <= 1
 0 <= y(45) <= 1
 0 <= y(46) <= 1
 0 <= y(47) <= 1
 0 <= y(48) <= 1
 0 <= y(49) <= 1
 0 <= y(50) <= 1
 0 <= y(51) <= 1
 0 <= y(52) <= 1
 0 <= y(53) <= 1
 0 <= y(54) <= 1
 0 <= y(55) <= 1
 0 <= y(56) <= 1
 0 <= y(57) <= 1
 0 <= y(58) <= 1
 0 <= y(59) <= 1
 0 <= y(60) <= 1
 0 <= y(61) <= 1
 0 <= y(62) <= 1
Binaries
 y(0)  y(1)  y(2)  y(3)  y(4)  y(5)  y(6)  y(7)  y(8)  y(9)  y(10)  y(11) 
 y(12)  y(13)  y(14)  y(15)  y(16)  y(17)  y(18)  y(19)  y(20)  y(21)  y(22) 
 y(23)  y(24)  y(25)  y(26)  y(27)  y(28)  y(29)  y(30)  y(31)  y(32)  y(33) 
 y(34)  y(35)  y(36)  y(37)  y(38)  y(39)  y(40)  y(41)  y(42)  y(43)  y(44) 
 y(45)  y(46)  y(47)  y(48)  y(49)  y(50)  y(51)  y(52)  y(53)  y(54)  y(55) 
 y(56)  y(57)  y(58)  y(59)  y(60)  y(61)  y(62) 
End
